param n := 60;
param c := 10000
param : V : p w :=
   0	  47	 475
   1	  97	 256
   2	  59	 269
   3	   4	 396
   4	  99	 264
   5	  55	 340
   6	  87	 468
   7	  69	 262
   8	  20	 270
   9	  93	 361
  10	   2	 300
  11	  44	 339
  12	  40	 444
  13	  34	 251
  14	  88	 305
  15	   1	 366
  16	  10	 252
  17	   8	 382
  18	  19	 409
  19	  44	 277
  20	  84	 314
  21	  84	 465
  22	  62	 260
  23	  60	 275
  24	  85	 447
  25	  67	 251
  26	  23	 302
  27	   9	 399
  28	  10	 297
  29	   8	 304
  30	  52	 423
  31	   9	 258
  32	   6	 319
  33	 100	 473
  34	  89	 260
  35	  24	 267
  36	  91	 426
  37	  37	 261
  38	  45	 313
  39	  43	 403
  40	  92	 289
  41	  47	 308
  42	  11	 402
  43	  89	 265
  44	  11	 333
  45	  35	 396
  46	  75	 257
  47	  19	 347
  48	  47	 411
  49	  72	 282
  50	  89	 307
  51	  60	 462
  52	  88	 258
  53	   3	 280
  54	  27	 412
  55	  33	 254
  56	  32	 334
  57	  39	 376
  58	   7	 255
  59	  18	 369
;

set E :=
   0	   1
   0	   2
   0	   4
   0	   5
   0	   7
   0	   9
   0	  12
   0	  14
   0	  15
   0	  18
   0	  20
   0	  21
   0	  27
   0	  28
   0	  30
   0	  32
   0	  33
   0	  34
   0	  35
   0	  37
   0	  39
   0	  40
   0	  42
   0	  49
   0	  52
   1	   4
   1	   5
   1	   7
   1	   9
   1	  17
   1	  18
   1	  19
   1	  21
   1	  26
   1	  29
   1	  31
   1	  32
   1	  33
   1	  36
   1	  39
   1	  40
   1	  47
   1	  48
   1	  51
   1	  52
   1	  55
   1	  57
   1	  58
   1	  59
   2	   3
   2	   4
   2	   7
   2	  15
   2	  16
   2	  17
   2	  18
   2	  20
   2	  22
   2	  25
   2	  27
   2	  29
   2	  33
   2	  35
   2	  37
   2	  38
   2	  39
   2	  42
   2	  43
   2	  44
   2	  49
   2	  52
   2	  56
   3	   4
   3	   9
   3	  13
   3	  15
   3	  16
   3	  17
   3	  18
   3	  21
   3	  22
   3	  24
   3	  27
   3	  28
   3	  30
   3	  32
   3	  35
   3	  37
   3	  38
   3	  39
   3	  44
   3	  45
   3	  46
   3	  49
   3	  50
   3	  53
   3	  55
   4	  10
   4	  11
   4	  12
   4	  14
   4	  17
   4	  19
   4	  20
   4	  22
   4	  25
   4	  26
   4	  31
   4	  32
   4	  34
   4	  35
   4	  37
   4	  38
   4	  39
   4	  40
   4	  43
   4	  44
   4	  45
   4	  46
   4	  47
   4	  49
   4	  50
   4	  51
   4	  52
   4	  54
   4	  55
   4	  57
   5	   6
   5	   8
   5	  14
   5	  16
   5	  17
   5	  18
   5	  21
   5	  22
   5	  26
   5	  28
   5	  29
   5	  32
   5	  35
   5	  37
   5	  39
   5	  41
   5	  42
   5	  49
   5	  50
   5	  52
   5	  53
   5	  54
   5	  55
   6	   8
   6	   9
   6	  13
   6	  16
   6	  17
   6	  19
   6	  22
   6	  23
   6	  24
   6	  27
   6	  28
   6	  31
   6	  33
   6	  34
   6	  35
   6	  36
   6	  37
   6	  44
   6	  46
   6	  47
   6	  48
   6	  51
   6	  52
   6	  53
   6	  54
   6	  58
   7	   8
   7	   9
   7	  10
   7	  11
   7	  12
   7	  16
   7	  17
   7	  20
   7	  21
   7	  22
   7	  31
   7	  35
   7	  42
   7	  43
   7	  47
   7	  48
   7	  50
   7	  52
   7	  54
   7	  58
   8	   9
   8	  10
   8	  11
   8	  12
   8	  14
   8	  15
   8	  16
   8	  17
   8	  21
   8	  26
   8	  28
   8	  30
   8	  32
   8	  33
   8	  34
   8	  36
   8	  37
   8	  40
   8	  41
   8	  42
   8	  45
   8	  47
   8	  53
   8	  57
   8	  59
   9	  18
   9	  19
   9	  21
   9	  24
   9	  27
   9	  28
   9	  29
   9	  32
   9	  34
   9	  35
   9	  38
   9	  39
   9	  40
   9	  41
   9	  42
   9	  43
   9	  48
   9	  49
   9	  51
   9	  54
   9	  55
   9	  56
   9	  57
   9	  58
   9	  59
  10	  11
  10	  13
  10	  18
  10	  19
  10	  20
  10	  22
  10	  23
  10	  25
  10	  26
  10	  27
  10	  29
  10	  34
  10	  40
  10	  41
  10	  43
  10	  44
  10	  45
  10	  47
  10	  48
  10	  49
  10	  50
  10	  55
  10	  59
  11	  13
  11	  18
  11	  24
  11	  29
  11	  32
  11	  36
  11	  37
  11	  38
  11	  41
  11	  44
  11	  47
  11	  53
  11	  55
  11	  57
  11	  58
  12	  13
  12	  14
  12	  21
  12	  22
  12	  24
  12	  26
  12	  33
  12	  34
  12	  37
  12	  39
  12	  40
  12	  42
  12	  46
  12	  47
  12	  48
  12	  51
  12	  52
  12	  53
  12	  55
  12	  57
  12	  58
  13	  14
  13	  21
  13	  22
  13	  26
  13	  29
  13	  31
  13	  37
  13	  39
  13	  42
  13	  43
  13	  44
  13	  46
  13	  47
  13	  52
  13	  59
  14	  21
  14	  24
  14	  26
  14	  29
  14	  30
  14	  31
  14	  32
  14	  34
  14	  37
  14	  40
  14	  41
  14	  44
  14	  45
  14	  46
  14	  47
  14	  52
  14	  53
  14	  54
  14	  56
  15	  16
  15	  18
  15	  20
  15	  22
  15	  23
  15	  28
  15	  30
  15	  34
  15	  37
  15	  38
  15	  39
  15	  41
  15	  42
  15	  43
  15	  44
  15	  45
  15	  49
  15	  52
  15	  55
  15	  56
  15	  58
  15	  59
  16	  20
  16	  24
  16	  29
  16	  30
  16	  34
  16	  35
  16	  37
  16	  39
  16	  41
  16	  43
  16	  46
  16	  49
  16	  53
  16	  54
  16	  55
  16	  57
  16	  58
  17	  21
  17	  27
  17	  28
  17	  30
  17	  31
  17	  32
  17	  33
  17	  35
  17	  39
  17	  40
  17	  41
  17	  42
  17	  45
  17	  46
  17	  47
  17	  52
  17	  53
  18	  20
  18	  24
  18	  25
  18	  26
  18	  27
  18	  28
  18	  30
  18	  31
  18	  32
  18	  34
  18	  40
  18	  41
  18	  44
  18	  49
  18	  53
  18	  55
  18	  56
  18	  57
  19	  20
  19	  26
  19	  27
  19	  31
  19	  33
  19	  40
  19	  44
  19	  47
  19	  49
  19	  56
  19	  58
  19	  59
  20	  22
  20	  24
  20	  27
  20	  31
  20	  33
  20	  34
  20	  35
  20	  37
  20	  39
  20	  41
  20	  43
  20	  47
  20	  51
  20	  53
  20	  56
  21	  22
  21	  26
  21	  28
  21	  29
  21	  30
  21	  32
  21	  33
  21	  34
  21	  38
  21	  39
  21	  40
  21	  41
  21	  48
  21	  52
  21	  55
  21	  57
  21	  59
  22	  27
  22	  29
  22	  31
  22	  40
  22	  41
  22	  43
  22	  50
  22	  56
  22	  57
  22	  59
  23	  24
  23	  27
  23	  28
  23	  30
  23	  31
  23	  32
  23	  36
  23	  37
  23	  39
  23	  44
  23	  48
  23	  49
  23	  50
  23	  51
  23	  52
  23	  54
  23	  58
  24	  25
  24	  27
  24	  28
  24	  30
  24	  31
  24	  32
  24	  34
  24	  38
  24	  41
  24	  43
  24	  45
  24	  46
  24	  48
  24	  49
  24	  52
  24	  55
  24	  56
  24	  57
  24	  58
  24	  59
  25	  28
  25	  30
  25	  32
  25	  34
  25	  35
  25	  36
  25	  38
  25	  40
  25	  41
  25	  43
  25	  45
  25	  54
  25	  56
  25	  57
  26	  27
  26	  28
  26	  30
  26	  31
  26	  33
  26	  34
  26	  39
  26	  44
  26	  49
  26	  54
  26	  56
  26	  57
  26	  58
  27	  30
  27	  32
  27	  38
  27	  39
  27	  49
  27	  53
  27	  54
  27	  58
  27	  59
  28	  30
  28	  33
  28	  38
  28	  40
  28	  41
  28	  42
  28	  46
  28	  47
  28	  55
  28	  57
  29	  37
  29	  40
  29	  44
  29	  45
  29	  48
  29	  49
  29	  50
  29	  53
  29	  54
  30	  36
  30	  40
  30	  42
  30	  43
  30	  44
  30	  45
  30	  47
  30	  51
  30	  54
  30	  55
  31	  32
  31	  34
  31	  38
  31	  39
  31	  41
  31	  43
  31	  44
  31	  45
  31	  53
  31	  54
  31	  57
  31	  59
  32	  33
  32	  36
  32	  37
  32	  41
  32	  42
  32	  43
  32	  51
  32	  53
  32	  54
  32	  57
  33	  35
  33	  37
  33	  38
  33	  41
  33	  44
  33	  50
  33	  55
  33	  56
  33	  58
  33	  59
  34	  36
  34	  37
  34	  45
  34	  46
  34	  47
  34	  48
  34	  49
  34	  51
  34	  52
  34	  53
  34	  57
  35	  37
  35	  38
  35	  41
  35	  46
  35	  47
  35	  49
  36	  37
  36	  38
  36	  39
  36	  40
  36	  42
  36	  43
  36	  51
  36	  53
  36	  57
  36	  59
  37	  38
  37	  51
  37	  53
  37	  55
  37	  59
  38	  40
  38	  42
  38	  43
  38	  48
  38	  55
  38	  58
  39	  41
  39	  42
  39	  49
  39	  50
  39	  56
  40	  46
  40	  56
  40	  58
  41	  43
  41	  50
  41	  54
  41	  55
  41	  56
  41	  57
  42	  44
  42	  45
  42	  47
  42	  48
  42	  50
  42	  53
  42	  57
  42	  59
  43	  45
  43	  46
  43	  49
  43	  50
  43	  52
  43	  53
  43	  54
  43	  56
  44	  48
  44	  49
  44	  55
  44	  56
  44	  59
  45	  46
  45	  47
  45	  48
  45	  49
  45	  54
  45	  55
  45	  56
  45	  57
  45	  59
  46	  48
  46	  49
  46	  50
  46	  51
  46	  52
  46	  53
  46	  55
  46	  56
  47	  52
  47	  53
  47	  54
  47	  55
  47	  57
  47	  59
  48	  50
  48	  52
  48	  54
  48	  58
  49	  50
  49	  51
  49	  55
  50	  54
  50	  55
  50	  57
  50	  58
  50	  59
  51	  58
  52	  53
  52	  55
  52	  57
  52	  58
  53	  54
  53	  58
  53	  59
  54	  57
  55	  59
  56	  57
;
